outputs/case_219.model.txt
internal_operation_executed = True
internal_control_executed = True
internal_handling_established = True
internal_handling_executed = True
derivative_business_operation_executed = True
internal_operation_established = True
penalty = False
internal_control_established = True
derivative_business_operation_ok = True
internal_operation_ok = True
internal_handling_ok = True
internal_control_ok = True
derivative_business_operation_established = True